#-------------------------
#
#This script is used to create different concentrations of vacancies in thorium dioxide
#By Ziqiang Wang on 07/03/2023
#
#-------------------------

clear
units                        metal
dimension                        3
boundary                     p p p
atom_style                   full
atom_modify                  map array

read_data                   perfect_relaxed.dat

# randomly create vacancies in the relaxed perfect crystal
variable                   vac_ratio  equal   0.02
group                      U_delete   id   1383  1394 11414 11473 17233 13634 14773 11163  7465  7455  9998 10000  &
                                           9675  9674  9770 13429 17487 17428 17930  3529 15280 15349  2606  2655  &
                                           9651  9649  1900  1898 10204  6603 17331 17332 17042 17092  7287  7298  &
                                           6831  6782   867  4465  6446  6507  1106  4708 12182 15832  7237  3627  &
                                           508   505  6844  6854 11992  8390  9721  9771  8584  8583  9724  6123   &
                                           14812 14869 15362 15471 17005 16946  1480  1549 16971 16922  2198  5857 &
                                           12925  9315 12650 16252  6676  3074  8725  8656  2104  2163  8091 11689 &
                                           613   616 14173 14114  4972  5029 14595   205  8293  4634  7441  7492   &
                                           5822  9421  9556  5955  3986  4045 11317  7658 17810 17812 15902 15951  &
                                           16717 13107 17185 17128  7204  7203  4837  4828  9567  9508 14500 14569

group                      O_delete   id   1327  1328  1389  1390 11409 11410  7812  7820 13572 13580 13629 13630  &
                                          11112 11120 11107 11108  3804  3812  7399  7400  9993  9994  6402  6404  &
                                           9619  9620  9669  9670  9765  9766  9768  9776 17431 17432 13830 13832  &
                                          17925 17926 17868 17876 11682 11684 11688 11696  2601  2602  2599  2600  &
                                           9595  9596  5988  5996  1901  1903  1893  1894  6606  6608  6547  6548  &
                                          17275 17276 13734 13736 17097 17098 13494 13496  7231  7232  7293  7294  &
                                           6775  6776  6837  6838   811   812   804   862  6441  6442  6451  6452  &
                                           1101  1102  1110  1112 12237 12238 12234 12236  3634  3642  3629  3630  &
                                          14910 14912 14844 14852  3246  3248  6849  6850  8394  8396  8385  8386  &
                                           6120  6178  9715  9716  4986  4988  8527  8528  6126  6128  6067  6068  &
                                          11214 11216 11208 11266 15417 15418 15415 15416 13344 13352 16941 16942  &
                                           1481  1483  1487  1495 16915 16916 16977 16978  2193  2194  2196  2204  &
                                           9264  9272  9259  9260 12645 12646 12654 12656  3078  3080  3069  3070  &
                                           5064  5072  5058  5060  2105  2107  2108  2111  8035  8036  8028  8086  &
                                            551   559   617   619 10512 10520 14109 14110  1374  1376  1368  1426  &
                                          14539 14540 14544 14552  4632  4640  4629  4630  3840  3898  3894  3896  &
                                           5877  5878  5820  9419  5958  5960  5899  5900  3981  3982   384   392  &
                                           7656  7664  7653  7654 17805 17806 14214 14216 15957 15958 15895 15896  &
                                          13056 13064 13051 13052 13524 13532 13530 13534  3606  3608  7205  7206  &
                                           1176  1184  1230  1232  9511  9512  5910  5912 10902 10904 10908 10916

group                       delete      union   U_delete O_delete
delete_atoms                group       delete

set                         type    1      charge   -1.1104
set                         type    2      charge    2.2208

kspace_style                pppm     1.0e-05
pair_style                  hybrid/overlay    coul/long   11.0  eam/alloy
pair_coeff                  * * coul/long
pair_coeff                  * * eam/alloy CeThUNpPuAmCmO.eam.alloy O U
neighbor                    2.0  bin
neigh_modify                every  1  delay  0  check  yes

# fully relaxing the defect configuration at 0K
fix                box_relax  all  box/relax aniso 0.0 vmax 0.001
min_style          cg
minimize           1.0e-30 1.0e-30 10000 10000 
unfix              box_relax

# apply the temperature into the system and relaxing at the temperature of interest
reset_atom_ids
variable                    temp      equal    600
velocity                    all  create   ${temp}  4542  dist  gaussian  rot  yes  mom  yes
fix                         npt  all  npt  temp  ${temp}  ${temp}  $(100*dt) aniso  0.0  0.0  $(1000*dt)

thermo                      50000
thermo_style                custom   step dt time atoms temp pe ke press vol

shell                       mkdir vac_${vac_ratio}_${temp}K
dump                        1  all  custom  50000  ./vac_${vac_ratio}_${temp}K/dump_relax.atom.* id type q x y z
dump_modify                 1  element  O  U

run                         100000
shell                       mkdir thermal_condu
write_data                  thermal_condu/vac_${vac_ratio}_relaxed.dat
