#-------------------------
#
#This script is used to create different concentrations of vacancies in thorium dioxide
#By Ziqiang Wang on 07/03/2023
#
#-------------------------

clear
units                        metal
dimension                        3
boundary                     p p p
atom_style                   full
atom_modify                  map array

read_data                   ThO2_unitcell.dat
replicate                   5  90  5

set                         type    1      charge   -1.1104
set                         type    2      charge    2.2208

kspace_style                pppm     1.0e-05
pair_style                  hybrid/overlay    coul/long   11.0  eam/alloy
pair_coeff                  * * coul/long
pair_coeff                  * * eam/alloy CeThUNpPuAmCmO.eam.alloy O Th Th O
neighbor                    2.0  bin
neigh_modify                every  1  delay  0  check  yes

# Fully relaxing the perfect crystal at 0K
fix                         box_relax  all  box/relax  aniso  0.0  vmax  0.001
min_style                   cg
minimize                    1.0e-30 1.0e-30 10000 10000
unfix                       box_relax
reset_timestep              0
# randomly create vacancies in the relaxed perfect crystal
group                       thorium     type  2
group                       oxygen      type  1

variable           vac_ratio   equal    0
variable           tot         equal    count(all)
variable           tot_vac     equal    round(${tot}*${vac_ratio})
variable           th_vac      equal    round(${tot_vac}*0.333333)
variable           oxy_vac     equal    2*${th_vac}
set                group    thorium   type/subset  3   ${th_vac}  1252
set                group    oxygen    type/subset  4   ${oxy_vac} 45558

group              delete     type    3 4
delete_atoms       group      delete

# fully relaxing the defect configuration at 0K
fix                box_relax  all  box/relax aniso 0.0 vmax 0.001
min_style          cg
minimize           1.0e-30 1.0e-30 10000 10000 
unfix              box_relax
reset_timestep     0

# apply the temperature into the system and relaxing system at the temperature of interest
reset_atom_ids
variable                    temp      equal    1500
velocity                    all  create   ${temp}  47788  dist  gaussian  rot  yes  mom  yes
fix                         npt  all  npt  temp  ${temp}  ${temp}  $(100*dt) aniso  0.0  0.0  $(1000*dt)

thermo                      10000
thermo_style                custom   step dt time atoms temp pe ke press vol

shell                       mkdir vac_${vac_ratio}_${temp}K
dump                        1  all  custom  10000  ./vac_${vac_ratio}_${temp}K/dump_relax.atom.* id type q x y z
dump_modify                 1  element  O  Th Th O

run                         100000
shell                       mkdir thermal_condu
write_data                  thermal_condu/vac_${vac_ratio}_relaxed.dat
