#-------------------------
#
#This script is used to create different concentrations of vacancies in thorium dioxide
#By Ziqiang Wang on 07/03/2023
#
#-------------------------

clear
units                        metal
dimension                        3
boundary                     p p p
atom_style                   full
atom_modify                  map array

read_data                   perfect_relaxed.dat

# randomly create vacancies in the relaxed perfect crystal
variable         vac_ratio       equal    0.015
region           sphere    sphere     13.67 69.1306 13.67 5.0  units box
group            sphere     region  sphere
group            oxygen     id 8011 8012 
group            thorium    id 7995 8019 
group            1          subtract sphere oxygen
group            cluster          union    1 thorium
group            Th       type     2
group            O        type     1
group            Th_group   intersect  cluster   Th
group            O_group    intersect  cluster   O
delete_atoms     group      cluster
region           sphere     delete
group            sphere     delete
group            oxygen     delete
group            thorium    delete
group            1          delete
group            cluster    delete
group            Th         delete
group            O          delete
group            Th_group   delete
group            O_group    delete

region           sphere    sphere     13.67 108.211 13.67 5.0  units box
group            sphere     region  sphere
group            oxygen     id 8431 8432 
group            thorium    id 8415  8439 
group            1          subtract sphere oxygen
group            cluster          union    1 thorium
group            Th       type     2
group            O        type     1
group            Th_group   intersect  cluster   Th
group            O_group    intersect  cluster   O
delete_atoms     group      cluster
region           sphere     delete
group            sphere     delete
group            oxygen     delete
group            thorium    delete
group            1          delete
group            cluster    delete
group            Th         delete
group            O          delete
group            Th_group   delete
group            O_group    delete


region           sphere    sphere     13.67 147.291 13.67 5.0  units box
group            sphere     region  sphere
group            oxygen     id 8851 8852 
group            thorium    id 8835 8859
group            1          subtract sphere oxygen
group            cluster          union    1 thorium
group            Th       type     2
group            O        type     1
group            Th_group   intersect  cluster   Th
group            O_group    intersect  cluster   O
delete_atoms     group      cluster
region           sphere     delete
group            sphere     delete
group            oxygen     delete
group            thorium    delete
group            1          delete
group            cluster    delete
group            Th         delete
group            O          delete
group            Th_group   delete
group            O_group    delete


region           sphere    sphere     13.67 191.955 13.67 5.0  units box
group            sphere     region  sphere
group            oxygen     id 9331 9332
group            thorium    id 9315 9339 
group            1          subtract sphere oxygen
group            cluster          union    1 thorium
group            Th       type     2
group            O        type     1
group            Th_group   intersect  cluster   Th
group            O_group    intersect  cluster   O
delete_atoms     group      cluster
region           sphere     delete
group            sphere     delete
group            oxygen     delete
group            thorium    delete
group            1          delete
group            cluster    delete
group            Th         delete
group            O          delete
group            Th_group   delete
group            O_group    delete


region           sphere    sphere     13.67 225.452 13.67 5.0  units box
group            sphere     region  sphere
group            oxygen     id 9691 9692 
group            thorium    id 9675 9699 
group            1          subtract sphere oxygen
group            cluster          union    1 thorium
group            Th       type     2
group            O        type     1
group            Th_group   intersect  cluster   Th
group            O_group    intersect  cluster   O
delete_atoms     group      cluster
region           sphere     delete
group            sphere     delete
group            oxygen     delete
group            thorium    delete
group            1          delete
group            cluster    delete
group            Th         delete
group            O          delete
group            Th_group   delete
group            O_group    delete

region           sphere    sphere     13.67 264.532 13.67 5.0  units box
group            sphere     region  sphere
group            oxygen     id 10111 10112 
group            thorium    id 10095 10119 
group            1          subtract sphere oxygen
group            cluster          union    1 thorium
group            Th       type     2
group            O        type     1
group            Th_group   intersect  cluster   Th
group            O_group    intersect  cluster   O
delete_atoms     group      cluster
region           sphere     delete
group            sphere     delete
group            oxygen     delete
group            thorium    delete
group            1          delete
group            cluster    delete
group            Th         delete
group            O          delete
group            Th_group   delete
group            O_group    delete

set                         type    1      charge   -1.1104
set                         type    2      charge    2.2208
kspace_style                pppm     1.0e-05
pair_style                  hybrid/overlay    coul/long   11.0  eam/alloy
pair_coeff                  * * coul/long
pair_coeff                  * * eam/alloy CeThUNpPuAmCmO.eam.alloy O Th
neighbor                    2.0  bin
neigh_modify                every  1  delay  0  check  yes

# fully relaxing the defect configuration at 0K
fix                box_relax  all  box/relax aniso 0.0 vmax 0.001
min_style          cg
minimize           1.0e-30 1.0e-30 10000 10000 
unfix              box_relax

# apply the temperature into the system and relaxing at the temperature of interest
reset_atom_ids
variable                    temp      equal    600
velocity                    all  create   ${temp}  4542  dist  gaussian  rot  yes  mom  yes
fix                         npt  all  npt  temp  ${temp}  ${temp}  $(100*dt) aniso  0.0  0.0  $(1000*dt)

thermo                      10000
thermo_style                custom   step dt time atoms temp pe ke press vol

shell                       mkdir vac_${vac_ratio}_${temp}K
dump                        1  all  custom  10000  ./vac_${vac_ratio}_${temp}K/dump_relax.atom.* id type q x y z
dump_modify                 1  element  O  Th

run                         100000
shell                       mkdir thermal_condu
write_data                  thermal_condu/vac_${vac_ratio}_relaxed.dat
