#-------------------------
#
#This script is used to create different concentrations of vacancies in thorium dioxide
#By Ziqiang Wang on 07/03/2023
#
#-------------------------

clear
units                        metal
dimension                        3
boundary                     p p p
atom_style                   full
atom_modify                  map array

read_data                   perfect_relaxed.dat

# randomly create vacancies in the relaxed perfect crystal
variable                   vac_ratio    equal  0.015
group                      Th_delete    id  15493 11883 11894 11834 11893  1585 15975  1576  1516  1573  8870  8919  &
                                            12460  8860  8917  5642  9301  5703  9304  9302 14689 14632 11091 11090  &
                                            11089 12361  8702  8763  8761  8764 12868 12865  9267  9266  9327  8955  &
                                            12496 12565 12506 12567  8281  4682  4683  8284  4694  2367  5977  2378  &
                                            2379  5980 17128 17125 13527 17127 17138  5295  5305  5246  5307  5306  &
                                            734   735  4333   723   674 12050 12052 12111 12109  8450  3745  3688  &
                                            3686  3735  3746  6340  2799  6397  6399  6350  4588  4647  4657  4648  &
                                            4645 16801 16804 16802 16863 16873

group                       O_delete    id  11832 11840 11827 11828 11889 11890 11829 11830  8232  8240 15924 15932  &
                                            15919 15920 15978 15980 15918 15922 15912 15970  8865  8866  8863  8864  &
                                            8862  8868  5262  5264  5256  5314  5645  5646  5648  5706  5647  5651  &
                                            5708  5710  9305  9306 11028 11036 11034 11038 11035 11039 11085 11086  &
                                            7428  7436  8708  8766  8705  8706  8707  8711  5108  5166  5168  5170  &
                                            9270  9272  9204  9212  9211  9215  9261  9262  9271  9275  8899  8900  &
                                            8898  8902  8904  8912 12501 12502 12511 12512  4628  4686  4685  4687  &
                                            4627  4631  4688  4690  4689  4691  2311  2312  2316  2324  2373  2374  &
                                            2323  2327  2382  2384 13530 13532 13464 13472 13471 13475 17071 17072  &
                                            17133 17134  5239  5240  1644  1652  5241  5242  5251  5252  5301  5302  &
                                            729   730   679   680   672   738   667   668   669   670 12045 12046  &
                                            8454  8456 12055 12056  8448  8506  8445  8446    84    92    90    94  &
                                            3681  3682  3679  3680  3741  3742  2742  2744  2743  2747  2736  2794  &
                                            6343  6344  6345  6346   990   992  4591  4592   996  1004  1050  1052  &
                                            984  1042 13148 13206 13208 13210 16805 16806 16807 16808 13212 13220

group                       delete      union   Th_delete  O_delete
delete_atoms                group       delete

set                         type    1      charge   -1.1104
set                         type    2      charge    2.2208
kspace_style                pppm     1.0e-05
pair_style                  hybrid/overlay    coul/long   11.0  eam/alloy
pair_coeff                  * * coul/long
pair_coeff                  * * eam/alloy CeThUNpPuAmCmO.eam.alloy O Th
neighbor                    2.0  bin
neigh_modify                every  1  delay  0  check  yes

# fully relaxing the defect configuration at 0K
fix                box_relax  all  box/relax aniso 0.0 vmax 0.001
min_style          cg
minimize           1.0e-30 1.0e-30 10000 10000 
unfix              box_relax

# apply the temperature into the system and relaxing at the temperature of interest
reset_atom_ids
variable                    temp      equal    1200
velocity                    all  create   ${temp}  4542  dist  gaussian  rot  yes  mom  yes
fix                         npt  all  npt  temp  ${temp}  ${temp}  $(100*dt) aniso  0.0  0.0  $(1000*dt)

thermo                      20000
thermo_style                custom   step dt time atoms temp pe ke press vol

shell                       mkdir vac_${vac_ratio}_${temp}K
dump                        1  all  custom  20000  ./vac_${vac_ratio}_${temp}K/dump_relax.atom.* id type q x y z
dump_modify                 1  element  O  Th

run                         100000
shell                       mkdir thermal_condu
write_data                  thermal_condu/vac_${vac_ratio}_relaxed.dat
