#-------------------------
#
#This script is used to create different concentrations of vacancies in thorium dioxide
#By Ziqiang Wang on 07/03/2023
#
#-------------------------

clear
units                        metal
dimension                        3
boundary                     p p p
atom_style                   full
atom_modify                  map array

read_data                   perfect_relaxed.dat

# randomly create vacancies in the relaxed perfect crystal
variable         vac_ratio       equal    0.02
region           sphere    sphere     13.67 35.6331 13.67 6.5  units box
group            sphere     region  sphere
group            oxygen     id 7643 4052 3990 4050 3992 7581 4042 3984 4056 7601 4062 4004 3994 4054 3996 7663  
group            thorium    id 7705
group            1          subtract sphere oxygen
group            cluster          union    1 thorium
group            Th       type     2
group            O        type     1
group            Th_group   intersect  cluster   Th
group            O_group    intersect  cluster   O
delete_atoms     group      cluster

region           sphere     delete
group            sphere     delete
group            oxygen     delete
group            thorium    delete
group            1          delete
group            cluster    delete
group            Th         delete
group            O          delete
group            Th_group   delete
group            O_group    delete

region           sphere    sphere     13.67 91.4622 13.67 6.5  units box
group            sphere     region  sphere
group            oxygen     id 8305
group            thorium    id 8243 4642 4652 4650 4590 4592 8181 4584 4656 4654 8201 4604 4594 4596 4662 8263 
group            1          subtract sphere thorium
group            cluster          union    1 oxygen
group            Th       type     2
group            O        type     1
group            Th_group   intersect  cluster   Th
group            O_group    intersect  cluster   O
delete_atoms     group      cluster
region           sphere     delete
group            sphere     delete
group            oxygen     delete
group            thorium    delete
group            1          delete
group            cluster    delete
group            Th         delete
group            O          delete
group            Th_group   delete
group            O_group    delete

region           sphere    sphere     13.67 141.708 13.67 6.5  units box
group            sphere     region  sphere
group            oxygen     id 8845
group            thorium    id 8783 5182 5192 5190 5130 5132 8721 5124 8803 5196 8741 5144 5134 5194 5136 5202 
group            1          subtract sphere thorium
group            cluster          union    1 oxygen
group            Th       type     2
group            O        type     1
group            Th_group   intersect  cluster   Th
group            O_group    intersect  cluster   O
delete_atoms     group      cluster
region           sphere     delete
group            sphere     delete
group            oxygen     delete
group            thorium    delete
group            1          delete
group            cluster    delete
group            Th         delete
group            O          delete
group            Th_group   delete
group            O_group    delete

region           sphere    sphere     13.67 197.537 13.67 6.5  units box
group            sphere     region  sphere
group            oxygen     id 9445
group            thorium    id 5724 9383 5782 5792 5732 5790 5730 9321 5796 5736 5794 9341 5744 5734 5802 9403 
group            1          subtract sphere thorium
group            cluster          union    1 oxygen
group            Th       type     2
group            O        type     1
group            Th_group   intersect  cluster   Th
group            O_group    intersect  cluster   O
delete_atoms     group      cluster
region           sphere     delete
group            sphere     delete
group            oxygen     delete
group            thorium    delete
group            1          delete
group            cluster    delete
group            Th         delete
group            O          delete
group            Th_group   delete
group            O_group    delete

region           sphere    sphere     13.67 247.784 13.67 6.5  units box
group            sphere     region  sphere
group            oxygen     id 9985
group            thorium    id 6264 9923 6322 6332 6272 6330 6270 9861 6336 6276 6334 9881 6274 6342 9943 6284 
group            1          subtract sphere thorium
group            cluster          union    1 oxygen
group            Th       type     2
group            O        type     1
group            Th_group   intersect  cluster   Th
group            O_group    intersect  cluster   O
delete_atoms     group      cluster
region           sphere     delete
group            sphere     delete
group            oxygen     delete
group            thorium    delete
group            1          delete
group            cluster    delete
group            Th         delete
group            O          delete
group            Th_group   delete
group            O_group    delete

region           sphere    sphere     13.67 298.03 13.67 6.5  units box
group            sphere     region  sphere
group            oxygen     id 10525
group            thorium    id 10463 6862 6872 6870 6810 6812 10401 6804 6876 6874 10421 6824 6814 6816 6882 10483
group            1          subtract sphere thorium
group            cluster          union    1 oxygen
group            Th       type     2
group            O        type     1
group            Th_group   intersect  cluster   Th
group            O_group    intersect  cluster   O
delete_atoms     group      cluster
region           sphere     delete
group            sphere     delete
group            oxygen     delete
group            thorium    delete
group            1          delete
group            cluster    delete
group            Th         delete
group            O          delete
group            Th_group   delete
group            O_group    delete

set                         type    1      charge   -1.1104
set                         type    2      charge    2.2208
kspace_style                pppm     1.0e-05
pair_style                  hybrid/overlay    coul/long   11.0  eam/alloy
pair_coeff                  * * coul/long
pair_coeff                  * * eam/alloy CeThUNpPuAmCmO.eam.alloy O Th
neighbor                    2.0  bin
neigh_modify                every  1  delay  0  check  yes

# fully relaxing the defect configuration at 0K
fix                box_relax  all  box/relax aniso 0.0 vmax 0.001
min_style          cg
minimize           1.0e-30 1.0e-30 10000 10000 
unfix              box_relax

# apply the temperature into the system and relaxing at the temperature of interest
reset_atom_ids
variable                    temp      equal    1200
velocity                    all  create   ${temp}  4542  dist  gaussian  rot  yes  mom  yes
fix                         npt  all  npt  temp  ${temp}  ${temp}  $(100*dt) aniso  0.0  0.0  $(1000*dt)

thermo                      20000
thermo_style                custom   step dt time atoms temp pe ke press vol

shell                       mkdir vac_${vac_ratio}_${temp}K
dump                        1  all  custom  20000  ./vac_${vac_ratio}_${temp}K/dump_relax.atom.* id type q x y z
dump_modify                 1  element  O  Th

run                         100000
shell                       mkdir thermal_condu
write_data                  thermal_condu/vac_${vac_ratio}_relaxed.dat
